benchmarks_vrp/CMT5/no_cluster/CMT5_12.vrp
NAME: CMT5_12
TYPE: CVRP
COMMENT: 1291.29 - Cluster Nr.12
DIMENSION: 14
CAPACITY: 200
EDGE_WEIGHT_TYPE: EUC_2D
NODE_COORD_TYPE: TWOD_COORDS
NODE_COORD_SECTION: 
3 27 68
10 35 69
6 17 63
2 6 68
12 35 35
14 27 69
4 31 67
5 17 64
8 5 64
9 20 65
11 2 60
7 31 62
13 31 76
1 15 77
DEPOT_SECTION: 
12
-1
DEMAND_SECTION: 
11 5
13 25
14 10
9 12
8 11
12 0
10 23
1 9
6 19
2 30
7 23
3 7
5 14
4 3
EOF
