benchmarks_vrp/CMT5/no_cluster/CMT5_12.tour
NAME: CMT5_12 solution
TYPE: TOUR
TOUR_SECTION:
12 7 3 14 4 10 13 1 2 8 11 6 5 9 -1
-1
EOF